Route #1: 0 49 19 100 58 21 50 52 71 108 0
Route #2: 0 14 62 86 75 41 39 80 109 0
Route #3: 0 31 17 99 43 76 25 15 106 0
Route #4: 0 69 18 102 66 42 20 46 5 0
Route #5: 0 6 87 51 98 97 92 32 105 38 0
Route #6: 0 3 67 70 57 82 7 73 63 0
Route #7: 0 91 24 26 85 34 45 89 8 0
Route #8: 0 79 16 29 81 94 48 10 54 0
Route #9: 0 40 47 107 90 1 78 74 53 11 0
Route #10: 0 12 88 95 28 27 36 30 56 103 0
Route #11: 0 68 59 65 60 83 55 101 4 77 0
Route #12: 0 96 64 93 104 61 22 9 33 2 0
Route #13: 0 84 23 13 44 37 35 72 0
Cost 25769:
